787
2069
3572
3361
3306
1009
1378
1875
726
1814
3335
3364
2509
1016
1005
1283
3151
3002
3062
3109
633
2135
2931
854
3260
1903
2882
2549
2688
1747
2172
1905
2563
2970
1845
386
2711
2031
1011
2495
1443
3776
561
3913
2642
1854
3120
1165
2499
1379
1521
1626
2627
2145
636
1439
1716
3032
3268
1819

6065
24798
48368
43224
46564
12783
8637
22955
8406
20614
48330
52706
27485
5873
5182

158
646
1260
1126
1213
333
225
598
219
537
1259
1373
716
153
135

1990.2

18
70
136
122
131
36
25
65
24
58
136
148
78
17
15
50
145
139
141
134
6
74
137
25
141
60
117
104
131
63
63
89
127
142
77
1
94
88
10
81
47
139
4
148
83
87
111
54
120
38
68
72
90
91
27
64
60
139
137
83
